
Welcome to IBM(R) ILOG(R) CPLEX(R) Interactive Optimizer 22.1.1.0
  with Simplex, Mixed Integer & Barrier Optimizers
5725-A06 5725-A29 5724-Y48 5724-Y49 5724-Y54 5724-Y55 5655-Y21
Copyright IBM Corp. 1988, 2022.  All Rights Reserved.

Type 'help' for a list of available commands.
Type 'help' followed by a command name for more
information on commands.

CPLEX> Selected objective sense:  MINIMIZE
Selected objective  name:  00000000
Selected RHS        name:  RHS1
Selected bound      name:  BOUND
Problem 'ee.mps' read.
Read time = 0.02 sec. (3.17 ticks)
CPLEX> New value for time limit in seconds: 7200
CPLEX> New value for parallel optimization mode: -1
CPLEX> New value for default parallel thread count: 40
CPLEX> New value for mixed integer optimality gap tolerance: 1e-13
CPLEX> Version identifier: 22.1.1.0 | 2022-11-28 | 9160aff4d
CPXPARAM_Threads                                 40
CPXPARAM_Parallel                                -1
CPXPARAM_TimeLimit                               7200
CPXPARAM_MIP_Tolerances_MIPGap                   1e-13
Found incumbent of value 0.000000 after 0.00 sec. (0.31 ticks)
Tried aggregator 2 times.
MIP Presolve eliminated 183 rows and 2745 columns.
MIP Presolve modified 6090 coefficients.
Aggregator did 713 substitutions.
Reduced MIP has 3636 rows, 7840 columns, and 28953 nonzeros.
Reduced MIP has 7840 binaries, 0 generals, 0 SOSs, and 0 indicators.
Presolve time = 0.07 sec. (69.13 ticks)
Probing time = 0.03 sec. (5.33 ticks)
Tried aggregator 1 time.
Detecting symmetries...
Reduced MIP has 3636 rows, 7840 columns, and 28953 nonzeros.
Reduced MIP has 7840 binaries, 0 generals, 0 SOSs, and 0 indicators.
Presolve time = 0.02 sec. (22.09 ticks)
Probing time = 0.02 sec. (5.12 ticks)
Clique table members: 18788.
MIP emphasis: balance optimality and feasibility.
MIP search method: dynamic search.
Parallel mode: opportunistic, using up to 40 threads.
Root relaxation solution time = 0.10 sec. (86.22 ticks)

        Nodes                                         Cuts/
   Node  Left     Objective  IInf  Best Integer    Best Bound    ItCnt     Gap

*     0+    0                            0.0000  -1.54000e+13              --- 
*     0+    0                      -6.00000e+12  -1.54000e+13           156.67%
      0     0  -1.53900e+13    93  -6.00000e+12  -1.53900e+13     2346  156.50%
*     0+    0                      -1.17800e+13  -1.53900e+13            30.65%
*     0+    0                      -1.53900e+13  -1.53900e+13             0.00%
      0     0  -1.53900e+13   144  -1.53900e+13      Cuts: 69     2602    0.00%
*     0+    0                      -1.53900e+13  -1.53900e+13             0.00%
      0     0  -1.53900e+13   216  -1.53900e+13      Cuts: 83     3073    0.00%
*     0+    0                      -1.53900e+13  -1.53900e+13             0.00%
      0     2  -1.53900e+13   206  -1.53900e+13  -1.53900e+13     3073    0.00%
Elapsed time = 2.94 sec. (1314.46 ticks, tree = 0.02 MB, solutions = 10)
*     9+   29                      -1.53900e+13  -1.53900e+13             0.00%
    166    16  -1.53900e+13   184  -1.53900e+13  -1.53900e+13    14828    0.00%
    323    28  -1.53900e+13   262  -1.53900e+13  -1.53900e+13    42827    0.00%
*   532    61      integral     0  -1.53900e+13  -1.53900e+13   145456    0.00%
    562    51  -1.53900e+13    96  -1.53900e+13  -1.53900e+13   111297    0.00%
    951    62  -1.53900e+13   103  -1.53900e+13  -1.53900e+13   132552    0.00%
   1527    84        cutoff        -1.53900e+13  -1.53900e+13   167763    0.00%
   2254    75  -1.53900e+13   331  -1.53900e+13  -1.53900e+13   164444    0.00%
*  2613   143      integral     0  -1.53900e+13  -1.53900e+13   255080    0.00%
   2902    65  -1.53900e+13   244  -1.53900e+13  -1.53900e+13   127442    0.00%
   3579   100  -1.53900e+13    47  -1.53900e+13  -1.53900e+13   156043    0.00%
   4142   126  -1.53900e+13    98  -1.53900e+13  -1.53900e+13   157667    0.00%
   5095   288        cutoff        -1.53900e+13  -1.53900e+13   345916    0.00%
Elapsed time = 10.69 sec. (4417.03 ticks, tree = 2.92 MB, solutions = 22)
   5799   226        cutoff        -1.53900e+13  -1.53900e+13   710885    0.00%
   6559    89        cutoff        -1.53900e+13  -1.53900e+13   767622    0.00%
   6699   236  -1.53900e+13   105  -1.53900e+13  -1.53900e+13   714203    0.00%

GUB cover cuts applied:  2
Clique cuts applied:  11
Cover cuts applied:  1071
Flow cuts applied:  1
Mixed integer rounding cuts applied:  2
Zero-half cuts applied:  4
Lift and project cuts applied:  10
Gomory fractional cuts applied:  18

Root node processing (before b&c):
  Real time             =    1.45 sec. (1302.61 ticks)
Parallel b&c, 40 threads:
  Real time             =    9.31 sec. (6029.22 ticks)
  Sync time (average)   =    2.68 sec.
  Wait time (average)   =    0.00 sec.
                          ------------
Total (root+branch&cut) =   10.75 sec. (7331.83 ticks)

Solution pool: 22 solutions saved.

MIP - Integer optimal solution:  Objective = -1.5389999088e+13
Solution time =   10.88 sec.  Iterations = 810709  Nodes = 6709
Deterministic time = 7331.86 ticks  (674.02 ticks/sec)

CPLEX> Solution 'p23' written to file 'ee.sol'.
CPLEX> 